###############################################################################
# MD simulation
###############################################################################

###############################################################################
# GENERAL SETUP
###############################################################################
units {lammps_unit_style}
boundary p p p
atom_style atomic
read_data "lammps.data"
mass 1 12.011
mass 2 1.00794
mass 3 15.9994
timestep 0.0005
thermo 1

###############################################################################
# NN
###############################################################################
{pair_commands}

###############################################################################
# INTEGRATOR
###############################################################################
fix INT all nve
dump 1 all atom 1 traj.dump

###############################################################################
# SIMULATION
###############################################################################
run 5
