###############################################################################
# MD simulation
###############################################################################

###############################################################################
# GENERAL SETUP
###############################################################################
units {lammps_unit_style}
boundary p p p
atom_style atomic
read_data "lammps.data"
{masses}
timestep 0.0005
thermo 1

###############################################################################
# NN
###############################################################################
{pair_commands}

###############################################################################
# INTEGRATOR
###############################################################################
fix INT all nve
dump            cust all custom 1 "../lammps/custom_nve.dump" element x y z vx vy vz fx fy fz
dump_modify     cust element {elements}

###############################################################################
# SIMULATION
###############################################################################
run {n_steps}
