###############################################################################
# MD simulation
###############################################################################

###############################################################################
# GENERAL SETUP
###############################################################################
units metal
boundary p p p
atom_style atomic
read_data "../lammps/lammps.data"
mass 1 12.011
mass 2 1.00794
mass 3 15.9994
timestep 0.0005
thermo 1

###############################################################################
# NN
###############################################################################
pair_style nnp dir "../lammps/nnp" showew no showewsum 10 resetew no maxew 100 emap "1:C,2:H,3:O" cflength 1.8897261258369282 cfenergy 0.03674932247495664
pair_coeff * * 6.351

variable temp equal 340.0
variable pressure equal 0.0
dump            xyzmov all xyz 1 cresol_mov_nvt.xyz
dump_modify    xyzmov element  O1 C7 H8 
dump 1 all atom 1 traj_nvt.dump

variable        dt         equal 1.00
variable        tdamp      equal 10*${dt}

velocity     all create ${temp} 2020 mom yes rot yes dist gaussian
velocity all zero angular
velocity all zero linear
#
fix x all nvt temp ${temp} ${temp} ${tdamp}  







###############################################################################
# SIMULATION
###############################################################################
run 1000
